NAME: RGB
TYPE: TSP
COMMENT: 3d RGB data
DIMENSION: 8
EDGE_WEIGHT_TYPE: GEO
EDGE_WEIGHT_FORMAT: FUNCTION 
DISPLAY_DATA_TYPE: COORD_DISPLAY
NODE_COORD_SECTION
   1  0         0         0 
   2  255        0         0 
   3  0          255       0 
   4  0          0         255 
   5  0          128       128 
   6  128        0         128 
   7  128        128       0 
   8  0          255       255 
   9  255        0         255 
  10  255        255       0 
  11  255        128       128 
  12  128        255       128 
  13  128        128       255 
  14  255        255       255 
EOF



